(set-info :Origin "This instance was generated by: BanditFuzz-- an RL fuzzer for SMT solvers" )
(set-info :Author "Joe Scott, Fed Mora, Vijay Ganesh" )
(set-info :Contact "Joe Scott, joseph.scott@uwaterloo.ca")
(set-logic QF_BV)
(declare-const bool_0 Bool)
(declare-const bool_1 Bool)
(declare-const bool_2 Bool)
(declare-const bool_3 Bool)
(declare-const bool_4 Bool)
(declare-const bv_0 (_ BitVec 32))
(declare-const bv_1 (_ BitVec 32))
(declare-const bv_2 (_ BitVec 32))
(declare-const bv_3 (_ BitVec 32))
(declare-const bv_4 (_ BitVec 32))
(assert (bvugt (bvnor (bvadd bv_1 #xf9c54885 ) (bvurem bv_1 #x97b2530a )) (bvsdiv (bvmul #x76738907  #x01ad5976 ) (bvnor bv_2 #x663762c6 ))))
(assert (bvuge (bvor (bvnor #x8f65501b  bv_4) (bvor #xb443a66c  #x63c07776 )) (bvsmod (bvsrem bv_4 bv_1) (bvlshr bv_3 bv_4))))
(assert (=> (or (bvult #xa1efa5c3  #xcc208cd2 ) (=> true bool_0)) (bvslt (bvshl #xa310e20b  #x939a9b08 ) (bvsub #xe656a492  #xcd2f4585 ))))
(assert (bvule (bvshl (bvshl #x406f1046  #xf60398bd ) (bvsub bv_0 bv_1)) (bvsrem (bvnand bv_1 bv_4) (bvurem bv_0 #x4b7176a6 ))))
(assert (bvslt (bvurem (bvsub #x2e4a26c3  bv_1) (bvudiv #x53734b24  bv_2)) (bvsrem (bvadd bv_4 bv_1) (bvlshr #x1be0bc70  bv_0))))
(check-sat)
(exit)
